c User generated cnf file
p cnf 12 46
8 8 -2 0 
-5 2 2 0 
3 3 -11 0 
8 -3 9 0 
-5 1 2 0 
4 -12 9 0 
10 5 -9 0 
12 8 -7 0 
10 3 -5 0 
9 -1 2 0 
5 -3 10 0 
-9 2 11 0 
-7 12 11 0 
11 -7 12 0 
3 11 -5 0 
6 7 -3 0 
-4 2 11 0 
7 11 -4 0 
11 -5 3 0 
8 2 -1 0 
-11 5 2 0 
-8 1 4 0 
10 -7 3 0 
1 -12 11 0 
4 -6 11 0 
1 10 -11 0 
11 6 -6 0 
5 -10 5 0 
1 -3 12 0 
7 -4 5 0 
6 11 -2 0 
-12 9 4 0 
6 -7 9 0 
-4 10 5 0 
3 7 -4 0 
12 9 -7 0 
-9 10 9 0 
8 -6 11 0 
8 -11 8 0 
6 -8 10 0 
4 -12 9 0 
-8 12 10 0 
11 6 -5 0 
12 -10 10 0 
3 3 -1 0 
12 -1 2 0 
